(set-info :source |printed by MathSAT|)
(declare-fun a_1 () (Array Int Int))
(declare-fun .x.3 () (Array Int Int))
(declare-fun b_1 () (Array Int Int))
(declare-fun .x.4 () (Array Int Int))
(declare-fun i_0 () Int)
(declare-fun .y.8 () Int)
(declare-fun N_1 () Int)
(declare-fun .y.9 () Int)
(declare-fun .y.4 () (Array Int Int))
(declare-fun c () (Array Int Int))
(declare-fun .y.5 () Int)
(declare-fun .x.5 () Int)
(declare-fun .y.6 () Int)
(declare-fun .x.6 () Int)
(declare-fun .loc.7 () Bool)
(declare-fun .loc.10 () Bool)
(declare-fun i1_1 () Int)
(define-fun .def_8 () (Array Int Int) (! a_1 :next |.x.3|))
(define-fun .def_10 () (Array Int Int) (! b_1 :next |.x.4|))
(define-fun .def_12 () Int (! i_0 :next |.y.8|))
(define-fun .def_14 () Int (! N_1 :next |.y.9|))
(define-fun .def_16 () (Array Int Int) (! .y.4 :next |c|))
(define-fun .def_18 () Int (! .y.5 :next |.x.5|))
(define-fun .def_20 () Int (! .y.6 :next |.x.6|))
(define-fun .def_22 () Bool (! .loc.7 :next |.loc.10|))
(define-fun .def_77 () Int (! i1_1 :next |.xpv.1|))
(define-fun .def_75 () Bool (= .def_12 0))
(define-fun .def_24 () Bool (not .def_22))
(define-fun .def_76 () Bool (! (and .def_24 .def_75) :init true))
(define-fun .def_69 () Bool (= .def_8 .x.3))
(define-fun .def_68 () Bool (= .def_10 .x.4))
(define-fun .def_70 () Bool (and .def_68 .def_69))
(define-fun .def_71 () Bool (and .loc.10 .def_70))
(define-fun .def_64 () Bool (= .def_14 .x.6))
(define-fun .def_62 () Bool (= .x.5 2))
(define-fun .def_25 () Bool (<= .def_14 .def_12))
(define-fun .def_63 () Bool (and .def_25 .def_62))
(define-fun .def_65 () Bool (and .def_63 .def_64))
(define-fun .def_66 () Bool (and .def_24 .def_65))
(define-fun .def_59 () Bool (<= .def_20 .def_18))
(define-fun .def_60 () Bool (not .def_59))
(define-fun .def_54 () Int (select .def_8 .def_18))
(define-fun .def_53 () Int (select .def_10 .def_18))
(define-fun .def_55 () Int (+ .def_53 .def_54))
(define-fun .def_56 () (Array Int Int) (store .def_16 .def_18 .def_55))
(define-fun .def_57 () Bool (= c .def_56))
(define-fun .def_49 () Int (* (- 1) .x.5))
(define-fun .def_50 () Int (+ .def_18 .def_49))
(define-fun .def_51 () Bool (= .def_50 (- 1)))
(define-fun .def_45 () Bool (= .def_20 .x.6))
(define-fun .def_46 () Bool (and .def_22 .def_45))
(define-fun .def_52 () Bool (and .def_46 .def_51))
(define-fun .def_58 () Bool (and .def_52 .def_57))
(define-fun .def_61 () Bool (and .def_58 .def_60))
(define-fun .def_67 () Bool (or .def_61 .def_66))
(define-fun .def_72 () Bool (and .def_67 .def_71))
(define-fun .def_42 () (Array Int Int) (store .def_8 .def_12 1))
(define-fun .def_43 () Bool (= .x.3 .def_42))
(define-fun .def_38 () (Array Int Int) (store .def_10 .def_12 2))
(define-fun .def_39 () Bool (= .x.4 .def_38))
(define-fun .def_33 () Int (* (- 1) .y.8))
(define-fun .def_34 () Int (+ .def_12 .def_33))
(define-fun .def_35 () Bool (= .def_34 (- 1)))
(define-fun .def_30 () Bool (= .def_14 .y.9))
(define-fun .def_28 () Bool (not .loc.10))
(define-fun .def_26 () Bool (not .def_25))
(define-fun .def_27 () Bool (and .def_24 .def_26))
(define-fun .def_29 () Bool (and .def_27 .def_28))
(define-fun .def_31 () Bool (and .def_29 .def_30))
(define-fun .def_36 () Bool (and .def_31 .def_35))
(define-fun .def_40 () Bool (and .def_36 .def_39))
(define-fun .def_44 () Bool (and .def_40 .def_43))
(define-fun .def_73 () Bool (! (or .def_44 .def_72) :trans true))
(define-fun .def_85 () Bool (<= .def_77 0))
(define-fun .def_86 () Bool (not .def_85))
(define-fun .def_80 () Int (select .def_16 .def_77))
(define-fun .def_82 () Bool (<= 3 .def_80))
(define-fun .def_83 () Bool (not .def_82))
(define-fun .def_78 () Bool (<= .def_20 .def_77))
(define-fun .def_79 () Bool (not .def_78))
(define-fun .def_84 () Bool (and .def_79 .def_83))
(define-fun .def_87 () Bool (and .def_84 .def_86))
(define-fun .def_88 () Bool (and .def_59 .def_87))
(define-fun .def_89 () Bool (and .def_22 .def_88))
(define-fun .def_91 () Bool (! (not .def_89) :invar-property 0))
(assert true)
